NAME: Random_100_1
ELLAPSED_TIME_(ms): 9
TOUR_SIZE: 3127.5085
TOUR_SECTION
0
36
48
58
13
53
12
54
3
56
11
63
81
44
40
23
73
82
26
47
46
32
30
49
20
68
33
64
72
5
16
42
89
88
29
41
39
65
57
84
14
80
94
69
37
77
51
2
34
99
15
91
8
92
18
75
83
71
10
35
43
52
79
38
78
24
27
85
66
4
25
93
22
67
95
1
90
45
17
28
19
6
31
9
7
62
55
96
86
60
61
59
76
70
21
87
97
98
74
50
0
EOF
